<number of tasks>
250

<cycle time>
1000

<order strength>
0.598


<task times>
1 34
2 145
3 206
4 470
5 283
6 433
7 172
8 97
9 35
10 343
11 155
12 23
13 143
14 162
15 279
16 108
17 45
18 216
19 82
20 195
21 289
22 69
23 315
24 157
25 284
26 27
27 210
28 207
29 124
30 201
31 415
32 32
33 73
34 289
35 511
36 567
37 116
38 143
39 112
40 203
41 54
42 88
43 35
44 188
45 190
46 484
47 167
48 111
49 53
50 162
51 120
52 171
53 180
54 384
55 248
56 454
57 187
58 435
59 144
60 196
61 246
62 122
63 34
64 446
65 568
66 77
67 98
68 150
69 198
70 213
71 176
72 306
73 76
74 125
75 390
76 108
77 101
78 289
79 100
80 193
81 31
82 315
83 524
84 183
85 213
86 195
87 185
88 114
89 216
90 58
91 20
92 147
93 485
94 60
95 86
96 532
97 461
98 139
99 180
100 216
101 175
102 93
103 366
104 512
105 73
106 30
107 143
108 242
109 304
110 20
111 141
112 143
113 127
114 265
115 189
116 522
117 580
118 40
119 519
120 133
121 91
122 48
123 120
124 489
125 36
126 59
127 446
128 205
129 158
130 38
131 87
132 485
133 161
134 134
135 147
136 30
137 471
138 367
139 87
140 179
141 174
142 114
143 148
144 88
145 41
146 136
147 604
148 566
149 579
150 28
151 482
152 94
153 242
154 216
155 106
156 168
157 529
158 47
159 238
160 97
161 104
162 198
163 46
164 175
165 499
166 486
167 150
168 450
169 403
170 32
171 310
172 205
173 44
174 536
175 209
176 186
177 30
178 319
179 109
180 279
181 169
182 392
183 144
184 440
185 128
186 206
187 265
188 38
189 159
190 28
191 535
192 449
193 246
194 129
195 533
196 284
197 96
198 133
199 374
200 564
201 172
202 177
203 94
204 62
205 132
206 197
207 233
208 107
209 447
210 61
211 435
212 34
213 100
214 164
215 50
216 526
217 420
218 132
219 480
220 212
221 488
222 559
223 177
224 478
225 488
226 209
227 226
228 266
229 390
230 157
231 289
232 237
233 235
234 176
235 445
236 233
237 39
238 36
239 104
240 507
241 198
242 398
243 487
244 252
245 176
246 240
247 183
248 257
249 185
250 137

<precedence relations>
1,34
2,231
3,148
4,60
5,60
6,174
7,9
7,10
7,12
7,14
7,23
8,11
8,13
8,14
8,15
9,34
10,231
11,56
12,174
13,16
13,22
14,20
14,21
14,53
15,17
15,18
15,19
16,34
17,34
18,104
19,148
20,56
21,198
22,23
22,24
22,25
22,26
22,27
22,28
22,29
22,30
22,31
22,32
22,33
23,34
24,34
25,34
26,231
27,148
28,148
29,60
30,212
31,229
32,180
33,35
33,36
33,37
33,38
33,39
33,40
34,41
34,42
34,43
34,44
34,45
34,46
34,47
34,48
35,148
36,129
37,56
38,212
39,179
40,49
41,60
42,244
43,50
43,52
43,53
43,59
44,57
44,146
45,51
45,57
46,50
46,70
46,95
47,231
48,56
49,50
49,51
49,52
49,54
49,55
49,56
49,58
50,104
51,104
52,231
53,148
54,60
55,60
56,61
56,62
56,63
56,64
56,65
56,66
56,67
56,68
56,69
56,70
56,71
57,198
58,180
59,131
59,141
59,158
59,167
60,72
60,73
60,74
60,75
60,76
60,77
60,78
60,79
60,80
60,81
60,82
60,83
60,84
60,85
60,86
60,87
60,88
60,89
61,158
61,173
62,72
62,90
63,123
63,150
63,151
64,90
65,72
65,90
65,103
66,72
67,72
67,95
67,96
68,72
69,72
69,93
69,97
69,103
70,72
70,107
70,116
70,120
71,72
71,90
71,91
71,95
72,104
73,116
73,164
74,91
74,129
75,94
76,91
77,95
78,119
78,168
78,179
79,93
79,121
80,97
80,105
80,120
81,91
81,92
81,93
82,91
82,92
82,96
83,103
83,108
83,145
84,91
84,92
84,94
85,149
85,165
86,92
86,117
86,118
86,126
87,123
87,163
88,146
88,159
88,163
89,91
89,120
89,130
89,145
90,92
90,102
90,117
90,130
91,148
92,244
93,129
94,129
95,100
96,97
96,98
96,99
96,101
96,102
96,103
97,104
98,104
99,148
100,129
101,212
102,105
102,107
102,108
102,126
102,131
103,106
103,107
103,167
104,109
104,110
104,111
104,112
104,113
105,129
106,212
107,229
108,114
108,115
108,164
109,198
110,212
111,180
112,174
113,117
113,118
113,119
113,121
113,122
113,123
113,124
114,148
115,116
115,120
116,148
117,129
118,129
119,212
120,180
121,174
122,174
123,125
123,128
123,131
124,125
124,126
124,127
124,130
124,143
125,148
126,148
127,148
128,148
129,132
129,133
129,134
129,135
129,136
129,137
129,139
130,140
131,138
131,140
132,148
133,141
134,142
134,143
135,145
135,146
136,144
136,151
136,160
137,142
138,198
139,212
140,144
141,148
142,148
143,148
144,149
144,169
144,180
145,147
145,150
146,151
147,231
148,152
148,153
148,154
148,155
148,156
148,157
149,174
150,158
150,159
150,160
151,167
151,174
151,186
153,161
154,197
154,212
155,175
155,187
156,165
157,169
158,198
159,162
159,164
159,179
160,163
160,175
161,198
162,212
163,229
164,167
164,169
165,166
165,168
165,170
165,171
166,229
167,180
168,174
169,174
170,173
170,175
170,176
171,172
172,212
173,180
174,177
174,178
174,181
174,182
174,183
174,184
174,185
175,179
175,186
176,186
177,244
178,198
179,212
180,188
180,189
180,190
180,191
180,192
180,193
180,194
180,195
181,199
181,222
183,195
183,198
184,187
185,239
186,225
187,198
188,196
188,200
191,214
191,221
192,197
192,199
192,221
193,201
193,202
193,230
194,200
194,213
195,203
195,229
196,231
197,244
198,204
198,205
198,206
198,207
198,208
198,209
198,210
198,211
198,212
198,215
199,212
200,212
203,213
203,228
204,214
205,233
206,221
207,221
207,223
208,222
208,233
210,239
210,244
211,220
211,221
212,216
212,217
212,218
212,219
213,214
213,215
214,244
215,244
218,225
219,224
222,223
223,229
224,227
224,228
224,229
225,226
225,230
226,231
227,231
228,231
229,234
229,235
229,236
229,237
229,238
229,239
230,232
230,233
231,240
231,241
231,242
231,243
232,244
233,244
236,245
244,246
244,247
244,248
244,249
244,250

<end>
